22 3
4 5 6
0 0 0 0 20 2 3 4 5 6 7 8 9 10 11 12 13 14 15 16 17 18 19 20 21
2 0 1 0 3 22 9 20
2 0 0 0 3 22 8 20
2 0 0 2 2 22 17
5 1 0 0 2 22 21
3 0 2 2 3 22 13 20
3 2 2 3 1 22
5 2 1 0 1 22
4 1 2 3 2 22 17
1 2 0 3 2 22 20
5 1 0 0 1 22
4 2 0 0 1 22
1 2 1 3 2 22 17
4 0 1 3 1 22
3 0 2 1 3 22 20 21
3 2 2 0 1 22
1 1 1 0 1 22
1 1 1 3 2 22 19
3 1 0 0 2 22 20
2 1 2 3 1 22
3 1 0 0 1 22
0 0 0 0 0
